c *********************************
c * Circuit generated by BenCGen
c *
c * Parity_141
c *
c * Ports with 1 gate(s): 1
c * Ports with 2 gate(s): 141
c * Total gates: 142
c *********************************
p cnf 283 565
1 144 0
-1 -144 0
1 -143 0
144 -143 0
-1 -144 143 0
1 2 -145 0
-1 2 145 0
1 -2 145 0
-1 -2 -145 0
3 4 -146 0
-3 4 146 0
3 -4 146 0
-3 -4 -146 0
5 6 -147 0
-5 6 147 0
5 -6 147 0
-5 -6 -147 0
7 8 -148 0
-7 8 148 0
7 -8 148 0
-7 -8 -148 0
9 10 -149 0
-9 10 149 0
9 -10 149 0
-9 -10 -149 0
11 12 -150 0
-11 12 150 0
11 -12 150 0
-11 -12 -150 0
13 14 -151 0
-13 14 151 0
13 -14 151 0
-13 -14 -151 0
15 16 -152 0
-15 16 152 0
15 -16 152 0
-15 -16 -152 0
17 18 -153 0
-17 18 153 0
17 -18 153 0
-17 -18 -153 0
19 20 -154 0
-19 20 154 0
19 -20 154 0
-19 -20 -154 0
21 22 -155 0
-21 22 155 0
21 -22 155 0
-21 -22 -155 0
23 24 -156 0
-23 24 156 0
23 -24 156 0
-23 -24 -156 0
25 26 -157 0
-25 26 157 0
25 -26 157 0
-25 -26 -157 0
27 28 -158 0
-27 28 158 0
27 -28 158 0
-27 -28 -158 0
29 30 -159 0
-29 30 159 0
29 -30 159 0
-29 -30 -159 0
31 32 -160 0
-31 32 160 0
31 -32 160 0
-31 -32 -160 0
33 34 -161 0
-33 34 161 0
33 -34 161 0
-33 -34 -161 0
35 36 -162 0
-35 36 162 0
35 -36 162 0
-35 -36 -162 0
37 38 -163 0
-37 38 163 0
37 -38 163 0
-37 -38 -163 0
39 40 -164 0
-39 40 164 0
39 -40 164 0
-39 -40 -164 0
41 42 -165 0
-41 42 165 0
41 -42 165 0
-41 -42 -165 0
43 44 -166 0
-43 44 166 0
43 -44 166 0
-43 -44 -166 0
45 46 -167 0
-45 46 167 0
45 -46 167 0
-45 -46 -167 0
47 48 -168 0
-47 48 168 0
47 -48 168 0
-47 -48 -168 0
49 50 -169 0
-49 50 169 0
49 -50 169 0
-49 -50 -169 0
51 52 -170 0
-51 52 170 0
51 -52 170 0
-51 -52 -170 0
53 54 -171 0
-53 54 171 0
53 -54 171 0
-53 -54 -171 0
55 56 -172 0
-55 56 172 0
55 -56 172 0
-55 -56 -172 0
57 58 -173 0
-57 58 173 0
57 -58 173 0
-57 -58 -173 0
59 60 -174 0
-59 60 174 0
59 -60 174 0
-59 -60 -174 0
61 62 -175 0
-61 62 175 0
61 -62 175 0
-61 -62 -175 0
63 64 -176 0
-63 64 176 0
63 -64 176 0
-63 -64 -176 0
65 66 -177 0
-65 66 177 0
65 -66 177 0
-65 -66 -177 0
67 68 -178 0
-67 68 178 0
67 -68 178 0
-67 -68 -178 0
69 70 -179 0
-69 70 179 0
69 -70 179 0
-69 -70 -179 0
71 72 -180 0
-71 72 180 0
71 -72 180 0
-71 -72 -180 0
73 74 -181 0
-73 74 181 0
73 -74 181 0
-73 -74 -181 0
75 76 -182 0
-75 76 182 0
75 -76 182 0
-75 -76 -182 0
77 78 -183 0
-77 78 183 0
77 -78 183 0
-77 -78 -183 0
79 80 -184 0
-79 80 184 0
79 -80 184 0
-79 -80 -184 0
81 82 -185 0
-81 82 185 0
81 -82 185 0
-81 -82 -185 0
83 84 -186 0
-83 84 186 0
83 -84 186 0
-83 -84 -186 0
85 86 -187 0
-85 86 187 0
85 -86 187 0
-85 -86 -187 0
87 88 -188 0
-87 88 188 0
87 -88 188 0
-87 -88 -188 0
89 90 -189 0
-89 90 189 0
89 -90 189 0
-89 -90 -189 0
91 92 -190 0
-91 92 190 0
91 -92 190 0
-91 -92 -190 0
93 94 -191 0
-93 94 191 0
93 -94 191 0
-93 -94 -191 0
95 96 -192 0
-95 96 192 0
95 -96 192 0
-95 -96 -192 0
97 98 -193 0
-97 98 193 0
97 -98 193 0
-97 -98 -193 0
99 100 -194 0
-99 100 194 0
99 -100 194 0
-99 -100 -194 0
101 102 -195 0
-101 102 195 0
101 -102 195 0
-101 -102 -195 0
103 104 -196 0
-103 104 196 0
103 -104 196 0
-103 -104 -196 0
105 106 -197 0
-105 106 197 0
105 -106 197 0
-105 -106 -197 0
107 108 -198 0
-107 108 198 0
107 -108 198 0
-107 -108 -198 0
109 110 -199 0
-109 110 199 0
109 -110 199 0
-109 -110 -199 0
111 112 -200 0
-111 112 200 0
111 -112 200 0
-111 -112 -200 0
113 114 -201 0
-113 114 201 0
113 -114 201 0
-113 -114 -201 0
115 116 -202 0
-115 116 202 0
115 -116 202 0
-115 -116 -202 0
117 118 -203 0
-117 118 203 0
117 -118 203 0
-117 -118 -203 0
119 120 -204 0
-119 120 204 0
119 -120 204 0
-119 -120 -204 0
121 122 -205 0
-121 122 205 0
121 -122 205 0
-121 -122 -205 0
123 124 -206 0
-123 124 206 0
123 -124 206 0
-123 -124 -206 0
125 126 -207 0
-125 126 207 0
125 -126 207 0
-125 -126 -207 0
127 128 -208 0
-127 128 208 0
127 -128 208 0
-127 -128 -208 0
129 130 -209 0
-129 130 209 0
129 -130 209 0
-129 -130 -209 0
131 132 -210 0
-131 132 210 0
131 -132 210 0
-131 -132 -210 0
133 134 -211 0
-133 134 211 0
133 -134 211 0
-133 -134 -211 0
135 136 -212 0
-135 136 212 0
135 -136 212 0
-135 -136 -212 0
137 138 -213 0
-137 138 213 0
137 -138 213 0
-137 -138 -213 0
139 140 -214 0
-139 140 214 0
139 -140 214 0
-139 -140 -214 0
145 146 -215 0
-145 146 215 0
145 -146 215 0
-145 -146 -215 0
147 148 -216 0
-147 148 216 0
147 -148 216 0
-147 -148 -216 0
149 150 -217 0
-149 150 217 0
149 -150 217 0
-149 -150 -217 0
151 152 -218 0
-151 152 218 0
151 -152 218 0
-151 -152 -218 0
153 154 -219 0
-153 154 219 0
153 -154 219 0
-153 -154 -219 0
155 156 -220 0
-155 156 220 0
155 -156 220 0
-155 -156 -220 0
157 158 -221 0
-157 158 221 0
157 -158 221 0
-157 -158 -221 0
159 160 -222 0
-159 160 222 0
159 -160 222 0
-159 -160 -222 0
161 162 -223 0
-161 162 223 0
161 -162 223 0
-161 -162 -223 0
163 164 -224 0
-163 164 224 0
163 -164 224 0
-163 -164 -224 0
165 166 -225 0
-165 166 225 0
165 -166 225 0
-165 -166 -225 0
167 168 -226 0
-167 168 226 0
167 -168 226 0
-167 -168 -226 0
169 170 -227 0
-169 170 227 0
169 -170 227 0
-169 -170 -227 0
171 172 -228 0
-171 172 228 0
171 -172 228 0
-171 -172 -228 0
173 174 -229 0
-173 174 229 0
173 -174 229 0
-173 -174 -229 0
175 176 -230 0
-175 176 230 0
175 -176 230 0
-175 -176 -230 0
177 178 -231 0
-177 178 231 0
177 -178 231 0
-177 -178 -231 0
179 180 -232 0
-179 180 232 0
179 -180 232 0
-179 -180 -232 0
181 182 -233 0
-181 182 233 0
181 -182 233 0
-181 -182 -233 0
183 184 -234 0
-183 184 234 0
183 -184 234 0
-183 -184 -234 0
185 186 -235 0
-185 186 235 0
185 -186 235 0
-185 -186 -235 0
187 188 -236 0
-187 188 236 0
187 -188 236 0
-187 -188 -236 0
189 190 -237 0
-189 190 237 0
189 -190 237 0
-189 -190 -237 0
191 192 -238 0
-191 192 238 0
191 -192 238 0
-191 -192 -238 0
193 194 -239 0
-193 194 239 0
193 -194 239 0
-193 -194 -239 0
195 196 -240 0
-195 196 240 0
195 -196 240 0
-195 -196 -240 0
197 198 -241 0
-197 198 241 0
197 -198 241 0
-197 -198 -241 0
199 200 -242 0
-199 200 242 0
199 -200 242 0
-199 -200 -242 0
201 202 -243 0
-201 202 243 0
201 -202 243 0
-201 -202 -243 0
203 204 -244 0
-203 204 244 0
203 -204 244 0
-203 -204 -244 0
205 206 -245 0
-205 206 245 0
205 -206 245 0
-205 -206 -245 0
207 208 -246 0
-207 208 246 0
207 -208 246 0
-207 -208 -246 0
209 210 -247 0
-209 210 247 0
209 -210 247 0
-209 -210 -247 0
211 212 -248 0
-211 212 248 0
211 -212 248 0
-211 -212 -248 0
213 214 -249 0
-213 214 249 0
213 -214 249 0
-213 -214 -249 0
215 216 -250 0
-215 216 250 0
215 -216 250 0
-215 -216 -250 0
217 218 -251 0
-217 218 251 0
217 -218 251 0
-217 -218 -251 0
219 220 -252 0
-219 220 252 0
219 -220 252 0
-219 -220 -252 0
221 222 -253 0
-221 222 253 0
221 -222 253 0
-221 -222 -253 0
223 224 -254 0
-223 224 254 0
223 -224 254 0
-223 -224 -254 0
225 226 -255 0
-225 226 255 0
225 -226 255 0
-225 -226 -255 0
227 228 -256 0
-227 228 256 0
227 -228 256 0
-227 -228 -256 0
229 230 -257 0
-229 230 257 0
229 -230 257 0
-229 -230 -257 0
231 232 -258 0
-231 232 258 0
231 -232 258 0
-231 -232 -258 0
233 234 -259 0
-233 234 259 0
233 -234 259 0
-233 -234 -259 0
235 236 -260 0
-235 236 260 0
235 -236 260 0
-235 -236 -260 0
237 238 -261 0
-237 238 261 0
237 -238 261 0
-237 -238 -261 0
239 240 -262 0
-239 240 262 0
239 -240 262 0
-239 -240 -262 0
241 242 -263 0
-241 242 263 0
241 -242 263 0
-241 -242 -263 0
243 244 -264 0
-243 244 264 0
243 -244 264 0
-243 -244 -264 0
245 246 -265 0
-245 246 265 0
245 -246 265 0
-245 -246 -265 0
247 248 -266 0
-247 248 266 0
247 -248 266 0
-247 -248 -266 0
249 141 -267 0
-249 141 267 0
249 -141 267 0
-249 -141 -267 0
250 251 -268 0
-250 251 268 0
250 -251 268 0
-250 -251 -268 0
252 253 -269 0
-252 253 269 0
252 -253 269 0
-252 -253 -269 0
254 255 -270 0
-254 255 270 0
254 -255 270 0
-254 -255 -270 0
256 257 -271 0
-256 257 271 0
256 -257 271 0
-256 -257 -271 0
258 259 -272 0
-258 259 272 0
258 -259 272 0
-258 -259 -272 0
260 261 -273 0
-260 261 273 0
260 -261 273 0
-260 -261 -273 0
262 263 -274 0
-262 263 274 0
262 -263 274 0
-262 -263 -274 0
264 265 -275 0
-264 265 275 0
264 -265 275 0
-264 -265 -275 0
266 267 -276 0
-266 267 276 0
266 -267 276 0
-266 -267 -276 0
268 269 -277 0
-268 269 277 0
268 -269 277 0
-268 -269 -277 0
270 271 -278 0
-270 271 278 0
270 -271 278 0
-270 -271 -278 0
272 273 -279 0
-272 273 279 0
272 -273 279 0
-272 -273 -279 0
274 275 -280 0
-274 275 280 0
274 -275 280 0
-274 -275 -280 0
277 278 -281 0
-277 278 281 0
277 -278 281 0
-277 -278 -281 0
279 280 -282 0
-279 280 282 0
279 -280 282 0
-279 -280 -282 0
281 282 -283 0
-281 282 283 0
281 -282 283 0
-281 -282 -283 0
283 276 -142 0
-283 276 142 0
283 -276 142 0
-283 -276 -142 0
